SPARKNaCl/why3-z3/sparknacl-secretbox.ads_84_46_range_check_1.smt2
;; produced by z3_gnatprove.drv ;;
(set-info :smt-lib-version 2.5)
(set-info :source |VC generated by SPARK 2014|)
(set-info :category industrial)
(set-info :status unknown)
;;; generated by SMT-LIB2 driver
;;; SMT-LIB2 driver: bit-vectors, common part
;;; SMT-LIB2: integer arithmetic
;; "length"
(define-fun length ((x Int) (y Int)) Int
  (ite (<= x y) (+ (- y x) 1) 0))

(declare-sort tinteger_32B 0)

;; "tinteger_32B'int"
(declare-fun tinteger_32Bqtint (tinteger_32B) Int)

;; "tinteger_32B'axiom"
(assert
  (forall ((i tinteger_32B))
    (and
      (<= (- 2147483648) (tinteger_32Bqtint i))
      (<= (tinteger_32Bqtint i) 2147483647))))

;; "in_range"
(define-fun in_range ((x Int)) Bool
  (and (<= (- 2147483648) x) (<= x 2147483647)))

;; "to_rep"
(define-fun to_rep ((x tinteger_32B)) Int
  (tinteger_32Bqtint x))

;; "of_rep"
(declare-fun of_rep (Int) tinteger_32B)

;; "inversion_axiom"
(assert
  (forall ((x tinteger_32B))
    (! (= (of_rep (to_rep x)) x) :pattern ((to_rep x)) )))

;; "range_axiom"
(assert
  (forall ((x tinteger_32B))
    (! (in_range (to_rep x)) :pattern ((to_rep x)) )))

;; "coerce_axiom"
(assert
  (forall ((x Int))
    (! (=> (in_range x) (= (to_rep (of_rep x)) x)) :pattern ((to_rep
                                                               (of_rep x))) )))

;; "in_range"
(define-fun in_range1 ((x Int)) Bool
  (and (<= 0 x) (<= x 2147483647)))

(declare-sort byte 0)

;; "to_rep"
(declare-fun to_rep1 (byte) (_ BitVec 8))

;; "of_rep"
(declare-fun of_rep1 ((_ BitVec 8)) byte)

;; "inversion_axiom"
(assert
  (forall ((x byte)) (! (= (of_rep1 (to_rep1 x)) x) :pattern ((to_rep1 x)) )))

;; "range_axiom"
(assert true)

;; "coerce_axiom"
(assert
  (forall ((x (_ BitVec 8)))
    (! (= (to_rep1 (of_rep1 x)) x) :pattern ((to_rep1 (of_rep1 x))) )))

(declare-sort map1 0)

(declare-datatypes ()
  ((map__ref (map__refqtmk (map__content map1)))))

;; "has_bounds"
(declare-fun has_bounds (map1
  Int
  Int) Bool)

(declare-datatypes ()
  ((t (tqtmk (rec__first tinteger_32B)(rec__last tinteger_32B)))))

;; "mk"
(declare-fun mk (Int
  Int) t)

;; "mk_def"
(assert
  (forall ((f Int) (l Int))
    (! (=>
         (in_range f)
         (=>
           (in_range l)
           (and
             (= (to_rep (rec__first (mk f l))) f)
             (= (to_rep (rec__last (mk f l))) l)))) :pattern ((mk f l)) )))

;; "dynamic_property"
(define-fun dynamic_property ((range_first Int) (range_last Int) (low Int) (high Int)) Bool
  (and
    (in_range low)
    (and
      (in_range high)
      (=> (<= low high) (and (in_range1 low) (in_range1 high))))))

(declare-datatypes ()
  ((us_t (us_tqtmk (elts map1)(rt t)))))

;; "of_array"
(define-fun of_array ((a map1) (f Int) (l Int)) us_t
  (us_tqtmk a (mk f l)))

;; "first"
(define-fun first ((a us_t)) Int
  (to_rep (rec__first (rt a))))

;; "last"
(define-fun last ((a us_t)) Int
  (to_rep (rec__last (rt a))))

;; "length"
(define-fun length1 ((a us_t)) Int
  (ite (<= (first a) (last a)) (+ (- (last a) (first a)) 1) 0))

;; "well_formed"
(define-fun well_formed ((a us_t)) Bool
  (has_bounds
    (elts a)
    (to_rep (rec__first (rt a)))
    (to_rep (rec__last (rt a)))))

(declare-const m__first tinteger_32B)

(declare-const m__last tinteger_32B)

(declare-const tag map1)

(declare-const c us_t)

(declare-const n map1)

(declare-const aad us_t)

(declare-sort us_main_type 0)

(declare-datatypes ()
  ((us_split_fields
   (us_split_fieldsqtmk
   (rec__ada___sparknacl__mac__poly_1305_key us_main_type)))))

(declare-datatypes ()
  ((us_split_fields__ref
   (us_split_fields__refqtmk (us_split_fields__content us_split_fields)))))

;; "dynamic_invariant"
(define-fun dynamic_invariant ((temp___expr_254 us_t) (temp___is_init_250 Bool) (temp___skip_constant_251 Bool) (temp___do_toplevel_252 Bool) (temp___do_typ_inv_253 Bool)) Bool
  (and
    (=>
      (not (= temp___skip_constant_251 true))
      (dynamic_property
        0
        2147483647
        (first temp___expr_254)
        (last temp___expr_254)))
    (well_formed temp___expr_254)))

(declare-const m map1)

(declare-const otk_bytes map1)

(declare-const otk__split_fields us_main_type)

;; "otk__split_fields'unused"
(define-fun otk__split_fieldsqtunused () us_split_fields__ref
  (us_split_fields__refqtmk (us_split_fieldsqtmk otk__split_fields)))

;; "otk_bytes'unused"
(define-fun otk_bytesqtunused () map__ref
  (map__refqtmk otk_bytes))

;; "m'unused"
(define-fun mqtunused () map__ref
  (map__refqtmk m))

;; "Assume"
(assert
  (and
    (dynamic_property 0 2147483647 (to_rep m__first) (to_rep m__last))
    (well_formed (of_array m (to_rep m__first) (to_rep m__last)))))

;; "Assume"
(assert (has_bounds tag 0 15))

;; "Assume"
(assert (dynamic_invariant c true false true true))

;; "Assume"
(assert (has_bounds n 0 11))

;; "Assume"
(assert true)

;; "Assume"
(assert (dynamic_invariant aad true false true true))

(declare-const o Bool)

(declare-const o1 Int)

;; "Ensures"
(assert (= (to_rep m__last) o1))

(declare-const to_repqtresultqtunused Int)

;; "H"
(assert (= to_repqtresultqtunused o1))

(declare-const o2 Int)

;; "Ensures"
(assert (= (to_rep m__first) o2))

(declare-const to_repqtresultqtunused1 Int)

;; "H"
(assert (= to_repqtresultqtunused1 o2))

(declare-const map__contentqtresultqtunused map1)

;; "H"
(assert (= map__contentqtresultqtunused m))

(declare-const of_arrayqtresultqtunused us_t)

;; "H"
(assert (= of_arrayqtresultqtunused (of_array m o2 o1)))

(declare-const o3 Int)

;; "Ensures"
(assert (= (to_rep m__first) o3))

(declare-const to_repqtresultqtunused2 Int)

;; "H"
(assert (= to_repqtresultqtunused2 o3))

(declare-const infix_eqqtresultqtunused Bool)

;; "H"
(assert (= infix_eqqtresultqtunused (ite (= o3 0) true false)))

(declare-const o4 Bool)

(declare-const o5 Int)

(declare-const firstqtresultqtunused Int)

(declare-const infix_eqqtresultqtunused1 Bool)

;; "H"
(assert
  (ite (= o3 0)
    (and
      (= o5 (first c))
      (and
        (= firstqtresultqtunused o5)
        (and
          (= o4 (ite (= o5 0) true false))
          (= infix_eqqtresultqtunused1 o4))))
    (= o4 false)))

(declare-const o6 Bool)

(declare-const o7 Int)

(declare-const firstqtresultqtunused1 Int)

(declare-const infix_eqqtresultqtunused2 Bool)

;; "H"
(assert
  (ite (= o4 true)
    (and
      (= o7 (first aad))
      (and
        (= firstqtresultqtunused1 o7)
        (and
          (= o6 (ite (= o7 0) true false))
          (= infix_eqqtresultqtunused2 o6))))
    (= o6 false)))

(declare-const o8 Bool)

(declare-const o9 Int)

(declare-const lastqtresultqtunused Int)

(declare-const o10 Int)

(declare-const to_repqtresultqtunused3 Int)

(declare-const o11 Int)

(declare-const to_repqtresultqtunused4 Int)

(declare-const map__contentqtresultqtunused1 map1)

(declare-const of_arrayqtresultqtunused1 us_t)

(declare-const o12 Int)

(declare-const to_repqtresultqtunused5 Int)

(declare-const infix_eqqtresultqtunused3 Bool)

;; "H"
(assert
  (ite (= o6 true)
    (and
      (= o9 (last c))
      (and
        (= lastqtresultqtunused o9)
        (and
          (= (to_rep m__last) o10)
          (and
            (= to_repqtresultqtunused3 o10)
            (and
              (= (to_rep m__first) o11)
              (and
                (= to_repqtresultqtunused4 o11)
                (and
                  (= map__contentqtresultqtunused1 m)
                  (and
                    (= of_arrayqtresultqtunused1 (of_array m o11 o10))
                    (and
                      (= (to_rep m__last) o12)
                      (and
                        (= to_repqtresultqtunused5 o12)
                        (and
                          (= o8 (ite (= o12 o9) true false))
                          (= infix_eqqtresultqtunused3 o8))))))))))))
    (= o8 false)))

(declare-const o13 Bool)

(declare-const o14 Int)

(declare-const lastqtresultqtunused1 Int)

(declare-const infix_lsqtresultqtunused Bool)

;; "H"
(assert
  (ite (= o8 true)
    (and
      (= o14 (last c))
      (and
        (= lastqtresultqtunused1 o14)
        (and
          (= o13 (ite (< o14 2147483647) true false))
          (= infix_lsqtresultqtunused o13))))
    (= o13 false)))

(declare-const o15 Bool)

(declare-const o16 Int)

(declare-const to_repqtresultqtunused6 Int)

(declare-const o17 Int)

(declare-const to_repqtresultqtunused7 Int)

(declare-const map__contentqtresultqtunused2 map1)

(declare-const of_arrayqtresultqtunused2 us_t)

(declare-const o18 Int)

(declare-const to_repqtresultqtunused8 Int)

(declare-const infix_lsqtresultqtunused1 Bool)

;; "H"
(assert
  (ite (= o13 true)
    (and
      (= (to_rep m__last) o16)
      (and
        (= to_repqtresultqtunused6 o16)
        (and
          (= (to_rep m__first) o17)
          (and
            (= to_repqtresultqtunused7 o17)
            (and
              (= map__contentqtresultqtunused2 m)
              (and
                (= of_arrayqtresultqtunused2 (of_array m o17 o16))
                (and
                  (= (to_rep m__last) o18)
                  (and
                    (= to_repqtresultqtunused8 o18)
                    (and
                      (= o15 (ite (< o18 2147483647) true false))
                      (= infix_lsqtresultqtunused1 o15))))))))))
    (= o15 false)))

(declare-const o19 Bool)

(declare-const o20 Int)

(declare-const to_repqtresultqtunused9 Int)

(declare-const o21 Int)

(declare-const to_repqtresultqtunused10 Int)

(declare-const map__contentqtresultqtunused3 map1)

(declare-const of_arrayqtresultqtunused3 us_t)

(declare-const o22 Int)

(declare-const to_repqtresultqtunused11 Int)

(declare-const o23 Int)

(declare-const to_repqtresultqtunused12 Int)

(declare-const o24 Int)

(declare-const lengthqtresultqtunused Int)

(declare-const o25 Int)

(declare-const lengthqtresultqtunused1 Int)

(declare-const infix_eqqtresultqtunused4 Bool)

;; "H"
(assert
  (ite (= o15 true)
    (and
      (= (to_rep m__last) o20)
      (and
        (= to_repqtresultqtunused9 o20)
        (and
          (= (to_rep m__first) o21)
          (and
            (= to_repqtresultqtunused10 o21)
            (and
              (= map__contentqtresultqtunused3 m)
              (and
                (= of_arrayqtresultqtunused3 (of_array m o21 o20))
                (and
                  (= (to_rep m__last) o22)
                  (and
                    (= to_repqtresultqtunused11 o22)
                    (and
                      (= (to_rep m__first) o23)
                      (and
                        (= to_repqtresultqtunused12 o23)
                        (and
                          (= o24 (length o23 o22))
                          (and
                            (= lengthqtresultqtunused o24)
                            (and
                              (= o25 (length1 c))
                              (and
                                (= lengthqtresultqtunused1 o25)
                                (and
                                  (= o19 (ite (= o25 o24) true false))
                                  (= infix_eqqtresultqtunused4 o19))))))))))))))))
    (= o19 false)))

(declare-const o26 Int)

(declare-const lastqtresultqtunused2 Int)

(declare-const infix_lsqtresultqtunused2 Bool)

;; "H"
(assert
  (ite (= o19 true)
    (and
      (= o26 (last aad))
      (and
        (= lastqtresultqtunused2 o26)
        (and
          (= o (ite (< o26 2147483647) true false))
          (= infix_lsqtresultqtunused2 o))))
    (= o false)))

;; "H"
(assert (= o true))

;; "o"
(define-fun o27 () Int
  (length1 aad))

;; "length'result'unused"
(define-fun lengthqtresultqtunused2 () Int
  o27)

;; Goal "def'vc"
;; File "sparknacl-secretbox.ads", line 66, characters 0-0
(assert
  (not (<= (- 9223372036854775808) o27)))

(check-sat)
